(set-logic QF_BV)
(declare-fun _substvar_1114_ () (_ BitVec 25))
(declare-fun _substvar_1155_ () (_ BitVec 4))
(declare-fun _substvar_1110_ () (_ BitVec 4))
(declare-fun _substvar_1109_ () (_ BitVec 4))
(declare-fun _substvar_1152_ () (_ BitVec 4))
(declare-fun _substvar_3348_ () (_ BitVec 5))
(declare-fun _substvar_2753_ () (_ BitVec 4))
(declare-fun _substvar_1160_ () (_ BitVec 4))
(declare-fun _substvar_933_ () (_ BitVec 4))
(declare-fun _substvar_936_ () (_ BitVec 4))
(declare-fun _substvar_1162_ () (_ BitVec 4))
(declare-fun _substvar_1165_ () (_ BitVec 4))
(declare-fun _substvar_994_ () (_ BitVec 4))
(declare-fun _substvar_1113_ () (_ BitVec 4))
(declare-fun _substvar_2779_ () (_ BitVec 4))
(declare-fun _substvar_934_ () (_ BitVec 4))
(declare-fun _substvar_1159_ () (_ BitVec 4))
(declare-fun _substvar_2788_ () (_ BitVec 25))
(declare-fun _substvar_2785_ () (_ BitVec 4))
(declare-fun _substvar_1166_ () (_ BitVec 4))
(assert (let ( (?v_0 (= _substvar_1162_ _substvar_1160_)) (?v_1 (= _substvar_1113_ _substvar_1110_)) (?v_4 (= _substvar_1155_ _substvar_1152_)) (?v_21 ((_ extract 19 16) _substvar_2788_)) (?v_22 ((_ extract 15 12) _substvar_2788_)) (?v_25 ((_ extract 3 0) _substvar_2788_)) (?v_26 (= _substvar_1165_ _substvar_1160_)) (?v_27 (= _substvar_934_ _substvar_1110_)) (?v_30 (= _substvar_1159_ _substvar_1152_)) (?v_44 ((_ extract 19 16) _substvar_1114_)) (?v_45 ((_ extract 15 12) _substvar_1114_)) (?v_48 ((_ extract 3 0) _substvar_1114_))) (and true true true (and true ?v_0 ?v_1 true true ?v_4) (= _substvar_2788_ (concat (concat (concat (concat (concat (_ bv0 5) _substvar_1162_) _substvar_1113_) (_ bv0 4)) (_ bv0 4)) _substvar_1155_)) (and true true (= _substvar_2785_ ?v_21) (= _substvar_933_ ?v_22) true true (= _substvar_2779_ ?v_25)) (= _substvar_1109_ (bvadd (bvadd (bvadd (bvadd (bvadd (_ bv0 4) _substvar_2785_) _substvar_933_) (_ bv0 4)) (_ bv0 4)) _substvar_2779_)) true (and true ?v_26 ?v_27 true true ?v_30) true true (= _substvar_1114_ (concat (concat (concat (concat (concat _substvar_3348_ _substvar_1165_) _substvar_934_) (_ bv0 4)) _substvar_2753_) _substvar_1159_)) (and true true (= _substvar_1166_ ?v_44) (= _substvar_936_ ?v_45) true true (= _substvar_994_ ?v_48)) (= (_ bv0 4) (bvadd (bvadd (bvadd (bvadd (bvadd (_ bv0 4) _substvar_1166_) _substvar_936_) (_ bv0 4)) (_ bv0 4)) _substvar_994_)) true true true true true true true true true true true true true true (not (= _substvar_1109_ (_ bv0 4))))))
(check-sat)
(exit)
